words_hard_train/5709.qaiger
aag 95 16 0 1 79
2
4
8
10
16
18
22
40
50
52
56
60
64
68
72
76
191
6 3 5
12 9 11
14 6 12
20 16 19
24 20 23
26 14 24
28 17 19
30 28 3
32 30 5
34 32 23
36 12 34
38 27 37
42 39 40
44 38 41
46 43 45
48 47 26
54 51 53
58 54 57
62 58 61
66 62 65
70 66 69
74 70 73
78 74 77
80 75 76
82 79 81
84 35 8
86 34 9
88 85 87
90 67 68
92 91 71
94 88 93
96 71 72
98 97 75
100 87 10
102 101 37
104 99 102
106 95 105
108 89 92
110 31 4
112 111 33
114 59 60
116 115 63
118 113 116
120 63 64
122 121 67
124 33 22
126 125 35
128 122 127
130 119 129
132 51 16
134 133 18
136 134 52
138 21 55
140 137 138
142 29 2
144 143 31
146 55 56
148 147 59
150 145 148
152 141 151
154 144 149
156 153 155
158 112 117
160 156 159
162 130 161
164 123 126
166 163 165
168 109 167
170 106 169
172 98 103
174 171 173
176 82 175
178 48 176
180 49 177
182 46 27
184 83 174
186 183 185
188 180 187
190 179 189
i0 1 x1[2]
i1 1 x1[3]
i2 1 x1[5]
i3 1 x1[6]
i4 1 x1[0]
i5 1 x1[1]
i6 1 x1[4]
i7 1 x1[7]
i8 2 y2[0]
i9 2 y2[1]
i10 2 y2[2]
i11 2 y2[3]
i12 2 y2[4]
i13 2 y2[5]
i14 2 y2[6]
i15 2 y2[7]
o0 bv[0]
c
simplified
  >
    subtract
      1
      1 x1
    subtract
      reverse
        1
      2 y2
