words_hard_train/5709.qaiger.qdimacs
p cnf 95 238
a 1 2 4 5 8 9 11 20 0
e 3 6 7 10 12 13 14 15 16 17 18 19 21 22 23 24 25 26 27 28 29 30 31 32 33 34 35 36 37 38 39 40 41 42 43 44 45 46 47 48 49 50 51 52 53 54 55 56 57 58 59 60 61 62 63 64 65 66 67 68 69 70 71 72 73 74 75 76 77 78 79 80 81 82 83 84 85 86 87 88 89 90 91 92 93 94 95 0
1 2 3 0
-1 -3 0
-2 -3 0
4 5 6 0
-4 -6 0
-5 -6 0
-3 -6 7 0
3 -7 0
6 -7 0
-8 9 10 0
8 -10 0
-9 -10 0
-10 11 12 0
10 -12 0
-11 -12 0
-7 -12 13 0
7 -13 0
12 -13 0
8 9 14 0
-8 -14 0
-9 -14 0
-14 1 15 0
14 -15 0
-1 -15 0
-15 2 16 0
15 -16 0
-2 -16 0
-16 11 17 0
16 -17 0
-11 -17 0
-6 -17 18 0
6 -18 0
17 -18 0
13 18 19 0
-13 -19 0
-18 -19 0
19 -20 21 0
-19 -21 0
20 -21 0
-19 20 22 0
19 -22 0
-20 -22 0
21 22 23 0
-21 -23 0
-22 -23 0
23 -13 24 0
-23 -24 0
13 -24 0
25 26 27 0
-25 -27 0
-26 -27 0
-27 28 29 0
27 -29 0
-28 -29 0
-29 30 31 0
29 -31 0
-30 -31 0
-31 32 33 0
31 -33 0
-32 -33 0
-33 34 35 0
33 -35 0
-34 -35 0
-35 36 37 0
35 -37 0
-36 -37 0
-37 38 39 0
37 -39 0
-38 -39 0
37 -38 40 0
-37 -40 0
38 -40 0
39 40 41 0
-39 -41 0
-40 -41 0
17 -4 42 0
-17 -42 0
4 -42 0
-17 4 43 0
17 -43 0
-4 -43 0
42 43 44 0
-42 -44 0
-43 -44 0
33 -34 45 0
-33 -45 0
34 -45 0
45 35 46 0
-45 -46 0
-35 -46 0
-44 46 47 0
44 -47 0
-46 -47 0
35 -36 48 0
-35 -48 0
36 -48 0
48 37 49 0
-48 -49 0
-37 -49 0
43 -5 50 0
-43 -50 0
5 -50 0
50 18 51 0
-50 -51 0
-18 -51 0
49 -51 52 0
-49 -52 0
51 -52 0
47 52 53 0
-47 -53 0
-52 -53 0
44 -46 54 0
-44 -54 0
46 -54 0
15 -2 55 0
-15 -55 0
2 -55 0
55 16 56 0
-55 -56 0
-16 -56 0
29 -30 57 0
-29 -57 0
30 -57 0
57 31 58 0
-57 -58 0
-31 -58 0
56 -58 59 0
-56 -59 0
58 -59 0
31 -32 60 0
-31 -60 0
32 -60 0
60 33 61 0
-60 -61 0
-33 -61 0
16 -11 62 0
-16 -62 0
11 -62 0
62 17 63 0
-62 -63 0
-17 -63 0
-61 63 64 0
61 -64 0
-63 -64 0
59 64 65 0
-59 -65 0
-64 -65 0
25 -8 66 0
-25 -66 0
8 -66 0
66 -9 67 0
-66 -67 0
9 -67 0
-67 -26 68 0
67 -68 0
26 -68 0
10 27 69 0
-10 -69 0
-27 -69 0
68 -69 70 0
-68 -70 0
69 -70 0
14 -1 71 0
-14 -71 0
1 -71 0
71 15 72 0
-71 -72 0
-15 -72 0
27 -28 73 0
-27 -73 0
28 -73 0
73 29 74 0
-73 -74 0
-29 -74 0
72 -74 75 0
-72 -75 0
74 -75 0
70 75 76 0
-70 -76 0
-75 -76 0
-72 74 77 0
72 -77 0
-74 -77 0
76 77 78 0
-76 -78 0
-77 -78 0
-56 58 79 0
56 -79 0
-58 -79 0
-78 79 80 0
78 -80 0
-79 -80 0
-65 80 81 0
65 -81 0
-80 -81 0
61 -63 82 0
-61 -82 0
63 -82 0
81 82 83 0
-81 -83 0
-82 -83 0
54 83 84 0
-54 -84 0
-83 -84 0
-53 84 85 0
53 -85 0
-84 -85 0
-49 51 86 0
49 -86 0
-51 -86 0
85 86 87 0
-85 -87 0
-86 -87 0
-41 87 88 0
41 -88 0
-87 -88 0
-24 -88 89 0
24 -89 0
88 -89 0
24 88 90 0
-24 -90 0
-88 -90 0
-23 13 91 0
23 -91 0
-13 -91 0
41 -87 92 0
-41 -92 0
87 -92 0
91 92 93 0
-91 -93 0
-92 -93 0
-90 93 94 0
90 -94 0
-93 -94 0
89 94 95 0
-89 -95 0
-94 -95 0
-95 0
